Speck32/MILP/sol/6Round_223.sol
# Objective value = 16.0
pro0Rd0 1.0
pro1Rd0 0.0
pro2Rd0 -1.662652838810622e-16
pro3Rd0 -1.662652838810622e-16
pro4Rd0 -4.987958516431866e-16
pro5Rd0 1.0
pro6Rd0 0.0
pro7Rd0 1.0
pro8Rd0 -1.3301222710484975e-15
pro9Rd0 1.000000000000004
pro10Rd0 -6.650611355242488e-16
pro11Rd0 -3.3253056776212457e-16
pro12Rd0 0.0
pro13Rd0 -2.0949425769013836e-15
pro14Rd0 -0.0
pro0Rd1 -6.650611355242488e-16
pro1Rd1 0.0
pro2Rd1 -6.650611355242488e-16
pro3Rd1 -0.0
pro4Rd1 -0.0
pro5Rd1 -0.0
pro6Rd1 0.0
pro7Rd1 0.0
pro8Rd1 -0.0
pro9Rd1 -8.31326419405311e-17
pro10Rd1 5.98555021971824e-16
pro11Rd1 1.429881441377135e-15
pro12Rd1 1.0
pro13Rd1 0.0
pro14Rd1 1.0
pro0Rd2 2.327713974334871e-16
pro1Rd2 1.2636161574960726e-15
pro2Rd2 1.1638569871674356e-16
pro3Rd2 1.0
pro4Rd2 0.0
pro5Rd2 -0.0
pro6Rd2 -6.650611355242488e-16
pro7Rd2 -6.650611355242488e-16
pro8Rd2 -0.0
pro9Rd2 1.3301222710484957e-16
pro10Rd2 -6.650611355242479e-17
pro11Rd2 -0.0
pro12Rd2 -0.0
pro13Rd2 0.0
pro14Rd2 -0.0
pro0Rd3 2.327713974334871e-16
pro1Rd3 -6.650611355242479e-17
pro2Rd3 -1.1638569871674356e-16
pro3Rd3 1.0
pro4Rd3 -0.0
pro5Rd3 -0.0
pro6Rd3 -0.0
pro7Rd3 1.3301222710484957e-16
pro8Rd3 -0.0
pro9Rd3 2.602588032364043e-16
pro10Rd3 1.0
pro11Rd3 0.0
pro12Rd3 0.0
pro13Rd3 -6.650611355242488e-16
pro14Rd3 -0.0
pro0Rd4 -1.0233360053066649e-15
pro1Rd4 1.0000000000000004
pro2Rd4 -8.672611743086361e-16
pro3Rd4 1.0
pro4Rd4 0.0
pro5Rd4 1.3301222710484957e-16
pro6Rd4 1.995183406572745e-16
pro7Rd4 1.1638569871674356e-16
pro8Rd4 3.218037752535714e-18
pro9Rd4 2.602588032364043e-16
pro10Rd4 1.0
pro11Rd4 -0.0
pro12Rd4 0.0
pro13Rd4 -0.0
pro14Rd4 2.327713974334871e-16
pro0Rd5 -0.0
pro1Rd5 1.0000000000000004
pro2Rd5 3.5398415277903536e-16
pro3Rd5 1.0
pro4Rd5 5.985550219718238e-16
pro5Rd5 -0.0
pro6Rd5 -0.0
pro7Rd5 -1.4223726866212139e-15
pro8Rd5 1.0
pro9Rd5 -0.0
pro10Rd5 1.0
pro11Rd5 0.0
pro12Rd5 1.6626528388106e-17
pro13Rd5 1.995183406572745e-16
pro14Rd5 -0.0
p0 -0.0
p1 -0.0
p2 -2.660244542096995e-15
p3 1.000000000000003
p4 -1.3301222710484975e-15
p5 -9.975917032863734e-16
p6 0.0
p7 -2.0949425769013836e-15
p8 -0.0
p9 1.0
p10 1.0
p11 0.0
p12 -3.325305677621244e-16
p13 -4.987958516431866e-16
p14 -0.0
p15 1.0000000000000007
p16 0.0
p17 1.0
p18 0.0
p19 -0.0
p20 -6.650611355242488e-16
p21 -4.987958516431866e-16
p22 -8.31326419405311e-16
p23 0.0
p24 1.0
p25 -0.0
p26 1.0
p27 -1.3301222710484975e-15
p28 -9.975917032863734e-16
p29 -0.0
p30 -2.0949425769013836e-15
p31 0.0
p0Rd1 -0.0
p16Rd1 0.0
temp0Rnd0 0.0
p1Rd1 0.0
p17Rd1 0.0
temp1Rnd0 0.0
p2Rd1 0.0
p18Rd1 -6.650611355242488e-16
temp2Rnd0 -6.650611355242488e-16
p3Rd1 -1.662652838810622e-16
p19Rd1 -6.650611355242488e-16
temp3Rnd0 -6.650611355242488e-16
p4Rd1 -8.31326419405311e-16
p20Rd1 -0.0
temp4Rnd0 -8.31326419405311e-16
p5Rd1 0.0
p21Rd1 0.0
temp5Rnd0 -0.0
p6Rd1 1.0
p22Rd1 0.0
temp6Rnd0 1.0
p7Rd1 0.0
p23Rd1 0.0
temp7Rnd0 -0.0
p8Rd1 1.0
p24Rd1 0.0
temp8Rnd0 1.0
p9Rd1 -1.3301222710484975e-15
p25Rd1 -0.0
temp9Rnd0 -1.3301222710484975e-15
p10Rd1 -9.975917032863734e-16
p26Rd1 -0.0
temp10Rnd0 -9.975917032863734e-16
p11Rd1 -6.650611355242488e-16
p27Rd1 -6.650611355242488e-16
temp11Rnd0 -6.650611355242488e-16
p12Rd1 -6.650611355242488e-16
p28Rd1 1.429881441377135e-15
temp12Rnd0 -6.650611355242488e-16
p13Rd1 -0.0
p29Rd1 -0.0
temp13Rnd0 -0.0
p14Rd1 -0.0
p30Rd1 0.0
temp14Rnd0 0.0
p15Rd1 0.0
p31Rd1 1.0
temp15Rnd0 1.0
temp0 0.0
p0Rd2 -6.650611355242488e-16
p16Rd2 0.0
temp0Rnd1 -6.650611355242488e-16
p1Rd2 -6.650611355242488e-16
p17Rd2 -0.0
temp1Rnd1 -6.650611355242488e-16
p2Rd2 -6.650611355242488e-16
p18Rd2 -6.650611355242488e-16
temp2Rnd1 -6.650611355242488e-16
p3Rd2 -0.0
p19Rd2 -0.0
temp3Rnd1 0.0
p4Rd2 -0.0
p20Rd2 0.0
temp4Rnd1 0.0
p5Rd2 -0.0
p21Rd2 0.0
temp5Rnd1 -0.0
p6Rd2 -0.0
p22Rd2 -0.0
temp6Rnd1 0.0
p7Rd2 -0.0
p23Rd2 0.0
temp7Rnd1 -0.0
p8Rd2 0.0
p24Rd2 -0.0
temp8Rnd1 0.0
p9Rd2 -0.0
p25Rd2 -6.650611355242488e-16
temp9Rnd1 -6.650611355242488e-16
p10Rd2 -8.31326419405311e-17
p26Rd2 1.3301222710484957e-16
temp10Rnd1 7.398805132707267e-16
p11Rd2 -6.650611355242479e-17
p27Rd2 -6.650611355242479e-17
temp11Rnd1 -6.650611355242479e-17
p12Rd2 -0.0
p28Rd2 0.0
temp12Rnd1 0.0
p13Rd2 1.0
p29Rd2 0.0
temp13Rnd1 1.0
p14Rd2 -0.0
p30Rd2 0.0
temp14Rnd1 -0.0
p15Rd2 -0.0
p31Rd2 0.0
temp15Rnd1 -0.0
temp1 1.0
p0Rd3 -0.0
p16Rd3 -6.650611355242488e-16
temp0Rnd2 -6.650611355242488e-16
p1Rd3 2.327713974334871e-16
p17Rd3 2.327713974334871e-16
temp1Rnd2 2.327713974334871e-16
p2Rd3 5.985550219718238e-16
p18Rd3 5.985550219718238e-16
temp2Rnd2 5.985550219718238e-16
p3Rd3 1.1638569871674356e-16
p19Rd3 1.1638569871674356e-16
temp3Rnd2 1.1638569871674356e-16
p4Rd3 1.0
p20Rd3 1.0
temp4Rnd2 1.0
p5Rd3 -0.0
p21Rd3 0.0
temp5Rnd2 0.0
p6Rd3 -0.0
p22Rd3 0.0
temp6Rnd2 0.0
p7Rd3 -6.650611355242488e-16
p23Rd3 0.0
temp7Rnd2 -6.650611355242488e-16
p8Rd3 -0.0
p24Rd3 1.3301222710484957e-16
temp8Rnd2 1.3301222710484957e-16
p9Rd3 -6.650611355242488e-16
p25Rd3 5.985550219718238e-16
temp9Rnd2 -6.650611355242479e-17
p10Rd3 -0.0
p26Rd3 -0.0
temp10Rnd2 0.0
p11Rd3 -6.650611355242479e-17
p27Rd3 -6.650611355242479e-17
temp11Rnd2 -6.650611355242479e-17
p12Rd3 0.0
p28Rd3 0.0
temp12Rnd2 -0.0
p13Rd3 -0.0
p29Rd3 0.0
temp13Rnd2 0.0
p14Rd3 -0.0
p30Rd3 -0.0
temp14Rnd2 -0.0
p15Rd3 -0.0
p31Rd3 -0.0
temp15Rnd2 0.0
temp2 0.0
p0Rd4 3.990366813145492e-16
p16Rd4 1.995183406572745e-16
temp0Rnd3 5.985550219718238e-16
p1Rd4 1.1638569871674356e-16
p17Rd4 0.0
temp1Rnd3 1.1638569871674356e-16
p2Rd4 -0.0
p18Rd4 1.0
temp2Rnd3 1.0
p3Rd4 -0.0
p19Rd4 -4.440892098500622e-16
temp3Rnd3 -4.440892098500624e-16
p4Rd4 1.0
p20Rd4 1.0
temp4Rnd3 1.0
p5Rd4 -0.0
p21Rd4 -0.0
temp5Rnd3 -0.0
p6Rd4 -0.0
p22Rd4 1.3301222710484957e-16
temp6Rnd3 1.3301222710484957e-16
p7Rd4 0.0
p23Rd4 5.985550219718238e-16
temp7Rnd3 5.985550219718238e-16
p8Rd4 2.327713974334871e-16
p24Rd4 2.327713974334871e-16
temp8Rnd3 2.327713974334871e-16
p9Rd4 5.985550219718238e-16
p25Rd4 5.320489084193989e-16
temp9Rnd3 5.320489084193989e-16
p10Rd4 2.602588032364043e-16
p26Rd4 2.602588032364043e-16
temp10Rnd3 2.602588032364043e-16
p11Rd4 1.0
p27Rd4 1.0
temp11Rnd3 1.0
p12Rd4 -0.0
p28Rd4 0.0
temp12Rnd3 -0.0
p13Rd4 -0.0
p29Rd4 0.0
temp13Rnd3 0.0
p14Rd4 -6.650611355242488e-16
p30Rd4 0.0
temp14Rnd3 -6.650611355242488e-16
p15Rd4 0.0
p31Rd4 2.327713974334871e-16
temp15Rnd3 2.327713974334871e-16
temp3 0.0
p0Rd5 0.0
p16Rd5 1.0
temp0Rnd4 1.0
p1Rd5 -1.0233360053066649e-15
p17Rd5 3.5398415277903536e-16
temp1Rnd4 -5.567205311888459e-16
p2Rd5 -1.356939252319628e-16
p18Rd5 1.0000000000000004
temp2Rnd4 1.0
p3Rd5 3.5398415277903536e-16
p19Rd5 3.5398415277903536e-16
temp3Rnd4 3.5398415277903536e-16
p4Rd5 0.9999999999999999
p20Rd5 1.0
temp4Rnd4 1.0
p5Rd5 0.0
p21Rd5 5.985550219718238e-16
temp5Rnd4 5.985550219718238e-16
p6Rd5 2.6602445420969915e-16
p22Rd5 0.0
temp6Rnd4 2.493979258215931e-16
p7Rd5 1.995183406572745e-16
p23Rd5 7.315672490766728e-16
temp7Rnd4 7.315672490766728e-16
p8Rd5 0.0
p24Rd5 2.602588032364043e-16
temp8Rnd4 2.602588032364043e-16
p9Rd5 5.352669461719346e-16
p25Rd5 0.9999999999999998
temp9Rnd4 1.0
p10Rd5 3.5398415277903536e-16
p26Rd5 3.5398415277903536e-16
temp10Rnd4 3.5398415277903536e-16
p11Rd5 -6.650611355242479e-17
p27Rd5 -6.650611355242479e-17
temp11Rnd4 -6.650611355242479e-17
p12Rd5 -0.0
p28Rd5 0.0
temp12Rnd4 0.0
p13Rd5 -0.0
p29Rd5 2.327713974334871e-16
temp13Rnd4 2.327713974334871e-16
p14Rd5 -0.0
p30Rd5 1.995183406572745e-16
temp14Rnd4 1.995183406572745e-16
p15Rd5 -0.0
p31Rd5 0.0
temp15Rnd4 0.0
temp4 2.327713974334871e-16
p0Rd6 1.0
p16Rd6 -1.356939252319628e-16
temp0Rnd5 1.0
p1Rd6 3.5398415277903536e-16
p17Rd6 -0.0
temp1Rnd5 3.5398415277903536e-16
p2Rd6 1.0
p18Rd6 0.0
temp2Rnd5 1.0
p3Rd6 -0.0
p19Rd6 5.985550219718238e-16
temp3Rnd5 5.985550219718238e-16
p4Rd6 1.0
p20Rd6 1.0
temp4Rnd5 1.0
p5Rd6 5.985550219718238e-16
p21Rd6 1.3301222710484913e-16
temp5Rnd5 7.315672490766728e-16
p6Rd6 0.0
p22Rd6 2.602588032364043e-16
temp6Rnd5 2.602588032364043e-16
p7Rd6 7.315672490766728e-16
p23Rd6 0.9999999999999991
temp7Rnd5 0.9999999999999998
p8Rd6 -1.2453806102316962e-15
p24Rd6 -1.224463364840208e-15
temp8Rnd5 -1.224463364840208e-15
p9Rd6 0.9999999999999994
p25Rd6 0.9999999999999998
temp9Rnd5 0.9999999999999994
p10Rd6 3.5398415277903536e-16
p26Rd6 3.5398415277903536e-16
temp10Rnd5 3.5398415277903536e-16
p11Rd6 0.9999999999999999
p27Rd6 0.9999999999999997
temp11Rnd5 0.9999999999999999
p12Rd6 0.0
p28Rd6 -1.995183406572745e-16
temp12Rnd5 0.0
p13Rd6 2.493979258215931e-16
p29Rd6 2.493979258215931e-16
temp13Rnd5 2.493979258215931e-16
p14Rd6 -0.0
p30Rd6 1.0
temp14Rnd5 1.0
p15Rd6 0.0
p31Rd6 3.5398415277903536e-16
temp15Rnd5 3.5398415277903536e-16
temp5 0.0
